VER
4

OBJSENSE
MIN

VAR
37 1
F 37

CON
466 3
SVECPSD 36
SVECORE 408
L= 22

OBJACOORD
8
0 -1.0
2 -1.0
5 1.0
9 1.0
14 1.0
20 1.0
27 -1.0
35 -1.0

ACOORD
181
322 0 1.0
308 0 1.0
177 0 1.0
172 0 1.0
41 0 4.0
0 0 1.0
1 1 1.0
328 2 1.0
310 2 1.0
181 2 1.0
174 2 1.0
2 2 1.0
333 3 1.0
311 3 1.0
195 3 1.0
182 3 1.0
59 3 2.0
46 3 -2.0
3 3 1.0
4 4 1.0
335 5 1.0
313 5 1.0
199 5 1.0
186 5 1.0
50 5 -4.0
5 5 1.0
6 6 1.0
341 7 1.0
315 7 1.0
203 7 1.0
188 7 1.0
7 7 1.0
8 8 1.0
343 9 1.0
317 9 1.0
207 9 1.0
192 9 1.0
9 9 1.0
10 10 1.0
11 11 1.0
12 12 1.0
13 13 1.0
398 14 1.0
352 14 1.0
237 14 1.0
216 14 1.0
14 14 1.0
15 15 1.0
16 16 1.0
17 17 1.0
18 18 1.0
19 19 1.0
412 20 1.0
362 20 1.0
249 20 1.0
226 20 1.0
113 20 -4.0
20 20 1.0
21 21 1.0
22 22 1.0
23 23 1.0
24 24 1.0
425 25 1.0
371 25 1.0
287 25 1.0
258 25 1.0
25 25 1.0
26 26 1.0
427 27 1.0
373 27 1.0
291 27 1.0
262 27 1.0
27 27 1.0
28 28 1.0
29 29 1.0
30 30 1.0
31 31 1.0
32 32 1.0
441 33 1.0
383 33 1.0
303 33 1.0
272 33 1.0
167 33 -2.0
136 33 2.0
33 33 1.0
34 34 1.0
443 35 1.0
385 35 1.0
307 35 1.0
276 35 1.0
140 35 4.0
35 35 1.0
171 36 1.0
155 36 1.0
140 36 1.0
126 36 1.0
113 36 1.0
101 36 1.0
90 36 1.0
80 36 1.0
71 36 1.0
63 36 1.0
56 36 1.0
50 36 1.0
45 36 1.0
41 36 1.0
38 36 1.0
36 36 1.0
444 36 1.0
445 35 1.0
445 27 1.0
445 20 1.0
445 14 1.0
445 9 1.0
445 5 1.0
445 2 1.0
445 0 1.0
446 14 1.0
446 2 -1.0
447 19 0.7071067811865475
447 7 -0.7071067811865475
447 3 -0.7071067811865475
447 1 0.7071067811865475
448 25 0.7071067811865475
448 16 -0.7071067811865475
448 10 -0.7071067811865475
448 3 0.7071067811865475
449 32 0.7071067811865475
449 29 -0.7071067811865475
449 21 -0.7071067811865475
449 6 0.7071067811865475
450 19 0.7071067811865475
450 7 -0.7071067811865475
450 3 -0.7071067811865475
450 1 0.7071067811865475
451 20 1.0
451 9 -1.0
451 5 -1.0
451 2 1.0
452 26 0.7071067811865475
452 18 -0.7071067811865475
452 12 -0.7071067811865475
452 4 0.7071067811865475
453 33 0.7071067811865475
453 31 -0.7071067811865475
453 23 -0.7071067811865475
453 7 0.7071067811865475
454 25 0.7071067811865475
454 16 -0.7071067811865475
454 10 -0.7071067811865475
454 3 0.7071067811865475
455 26 0.7071067811865475
455 18 -0.7071067811865475
455 12 -0.7071067811865475
455 4 0.7071067811865475
456 27 1.0
456 20 -1.0
456 14 -1.0
456 5 1.0
457 34 0.7071067811865475
457 33 -0.7071067811865475
457 25 -0.7071067811865475
457 8 0.7071067811865475
458 32 0.7071067811865475
458 29 -0.7071067811865475
458 21 -0.7071067811865475
458 6 0.7071067811865475
459 33 0.7071067811865475
459 31 -0.7071067811865475
459 23 -0.7071067811865475
459 7 0.7071067811865475
460 34 0.7071067811865475
460 33 -0.7071067811865475
460 25 -0.7071067811865475
460 8 0.7071067811865475
461 27 -1.0
461 9 1.0
462 3 2.82842712474619
463 3 -2.82842712474619
464 33 -2.82842712474619
465 33 2.82842712474619

BCOORD
1
445 1.0
